p cnf 196 758
c p weight 11 1 0
c p weight -11 1 0
c p weight 12 0 0
c p weight -12 1 0
c p weight -9 1 0
c p weight 9 -1 0
c p weight 15 6.12323399573676603586882014729198302312846062338790031898128063403419218957424163818359375E-17 0
c p weight -15 1 0
c p weight 16 1 0
c p weight -16 1 0
c p weight -13 1 0
c p weight 13 -1 0
c p weight 19 -0.707106781186547461715008466853760182857513427734375 0
c p weight -19 1 0
c p weight 20 0.70710678118654757273731092936941422522068023681640625 0
c p weight -20 1 0
c p weight -17 1 0
c p weight 17 -1 0
c p weight 23 6.12323399573676603586882014729198302312846062338790031898128063403419218957424163818359375E-17 0
c p weight -23 1 0
c p weight 24 1 0
c p weight -24 1 0
c p weight -21 1 0
c p weight 21 -1 0
c p weight 27 -1 0
c p weight -27 1 0
c p weight 28 3.673940397442059375002259206809000622711899723162043418511757408850826323032379150390625E-16 0
c p weight -28 1 0
c p weight -25 1 0
c p weight 25 -1 0
c p weight -29 1 0
c p weight 29 -1 0
c p weight 33 6.12323399573676603586882014729198302312846062338790031898128063403419218957424163818359375E-17 0
c p weight -33 1 0
c p weight 34 1 0
c p weight -34 1 0
c p weight -31 1 0
c p weight 31 -1 0
c p weight -35 1 0
c p weight 35 -1 0
c p weight 39 1 0
c p weight -39 1 0
c p weight 40 0 0
c p weight -40 1 0
c p weight -37 1 0
c p weight 37 -1 0
c p weight 43 6.12323399573676603586882014729198302312846062338790031898128063403419218957424163818359375E-17 0
c p weight -43 1 0
c p weight 44 1 0
c p weight -44 1 0
c p weight -41 1 0
c p weight 41 -1 0
c p weight 47 -0.577350269189625731058868041145615279674530029296875 0
c p weight -47 1 0
c p weight 48 0.8164965809277260344600790631375275552272796630859375 0
c p weight -48 1 0
c p weight -45 1 0
c p weight 45 -1 0
c p weight 51 6.12323399573676603586882014729198302312846062338790031898128063403419218957424163818359375E-17 0
c p weight -51 1 0
c p weight 52 1 0
c p weight -52 1 0
c p weight -49 1 0
c p weight 49 -1 0
c p weight 55 -1 0
c p weight -55 1 0
c p weight 56 3.673940397442059375002259206809000622711899723162043418511757408850826323032379150390625E-16 0
c p weight -56 1 0
c p weight -53 1 0
c p weight 53 -1 0
c p weight -57 1 0
c p weight 57 -1 0
c p weight 61 6.12323399573676603586882014729198302312846062338790031898128063403419218957424163818359375E-17 0
c p weight -61 1 0
c p weight 62 1 0
c p weight -62 1 0
c p weight -59 1 0
c p weight 59 -1 0
c p weight -63 1 0
c p weight 63 -1 0
c p weight 67 1 0
c p weight -67 1 0
c p weight 68 0 0
c p weight -68 1 0
c p weight -65 1 0
c p weight 65 -1 0
c p weight 71 6.12323399573676603586882014729198302312846062338790031898128063403419218957424163818359375E-17 0
c p weight -71 1 0
c p weight 72 1 0
c p weight -72 1 0
c p weight -69 1 0
c p weight 69 -1 0
c p weight 75 -0.499999999999999833466546306226518936455249786376953125 0
c p weight -75 1 0
c p weight 76 0.86602540378443870761060452423407696187496185302734375 0
c p weight -76 1 0
c p weight -73 1 0
c p weight 73 -1 0
c p weight 79 6.12323399573676603586882014729198302312846062338790031898128063403419218957424163818359375E-17 0
c p weight -79 1 0
c p weight 80 1 0
c p weight -80 1 0
c p weight -77 1 0
c p weight 77 -1 0
c p weight 83 -1 0
c p weight -83 1 0
c p weight 84 3.673940397442059375002259206809000622711899723162043418511757408850826323032379150390625E-16 0
c p weight -84 1 0
c p weight -81 1 0
c p weight 81 -1 0
c p weight -85 1 0
c p weight 85 -1 0
c p weight 89 6.12323399573676603586882014729198302312846062338790031898128063403419218957424163818359375E-17 0
c p weight -89 1 0
c p weight 90 1 0
c p weight -90 1 0
c p weight -87 1 0
c p weight 87 -1 0
c p weight -91 1 0
c p weight 91 -1 0
c p weight -93 1 0
c p weight 93 -1 0
c p weight -94 1 0
c p weight 94 -1 0
c p weight -97 1 0
c p weight 97 -1 0
c p weight 101 6.12323399573676603586882014729198302312846062338790031898128063403419218957424163818359375E-17 0
c p weight -101 1 0
c p weight 102 1 0
c p weight -102 1 0
c p weight -99 1 0
c p weight 99 -1 0
c p weight -103 1 0
c p weight 103 -1 0
c p weight 107 1 0
c p weight -107 1 0
c p weight 108 0 0
c p weight -108 1 0
c p weight -105 1 0
c p weight 105 -1 0
c p weight 111 6.12323399573676603586882014729198302312846062338790031898128063403419218957424163818359375E-17 0
c p weight -111 1 0
c p weight 112 1 0
c p weight -112 1 0
c p weight -109 1 0
c p weight 109 -1 0
c p weight 115 -0.500000000000000444089209850062616169452667236328125 0
c p weight -115 1 0
c p weight 116 -0.86602540378443837454369713668711483478546142578125 0
c p weight -116 1 0
c p weight -113 1 0
c p weight 113 -1 0
c p weight 119 6.12323399573676603586882014729198302312846062338790031898128063403419218957424163818359375E-17 0
c p weight -119 1 0
c p weight 120 1 0
c p weight -120 1 0
c p weight -117 1 0
c p weight 117 -1 0
c p weight 123 -1 0
c p weight -123 1 0
c p weight 124 3.673940397442059375002259206809000622711899723162043418511757408850826323032379150390625E-16 0
c p weight -124 1 0
c p weight -121 1 0
c p weight 121 -1 0
c p weight -125 1 0
c p weight 125 -1 0
c p weight -128 1 0
c p weight 128 -1 0
c p weight 132 6.12323399573676603586882014729198302312846062338790031898128063403419218957424163818359375E-17 0
c p weight -132 1 0
c p weight 133 1 0
c p weight -133 1 0
c p weight -130 1 0
c p weight 130 -1 0
c p weight -134 1 0
c p weight 134 -1 0
c p weight 138 1 0
c p weight -138 1 0
c p weight 139 0 0
c p weight -139 1 0
c p weight -136 1 0
c p weight 136 -1 0
c p weight 142 6.12323399573676603586882014729198302312846062338790031898128063403419218957424163818359375E-17 0
c p weight -142 1 0
c p weight 143 1 0
c p weight -143 1 0
c p weight -140 1 0
c p weight 140 -1 0
c p weight 146 -0.57735026918962562003656557862996123731136322021484375 0
c p weight -146 1 0
c p weight 147 -0.81649658092772614548238152565318159759044647216796875 0
c p weight -147 1 0
c p weight -144 1 0
c p weight 144 -1 0
c p weight 150 6.12323399573676603586882014729198302312846062338790031898128063403419218957424163818359375E-17 0
c p weight -150 1 0
c p weight 151 1 0
c p weight -151 1 0
c p weight -148 1 0
c p weight 148 -1 0
c p weight 154 -1 0
c p weight -154 1 0
c p weight 155 3.673940397442059375002259206809000622711899723162043418511757408850826323032379150390625E-16 0
c p weight -155 1 0
c p weight -152 1 0
c p weight 152 -1 0
c p weight -156 1 0
c p weight 156 -1 0
c p weight -159 1 0
c p weight 159 -1 0
c p weight 163 6.12323399573676603586882014729198302312846062338790031898128063403419218957424163818359375E-17 0
c p weight -163 1 0
c p weight 164 1 0
c p weight -164 1 0
c p weight -161 1 0
c p weight 161 -1 0
c p weight -165 1 0
c p weight 165 -1 0
c p weight 169 1 0
c p weight -169 1 0
c p weight 170 0 0
c p weight -170 1 0
c p weight -167 1 0
c p weight 167 -1 0
c p weight 173 6.12323399573676603586882014729198302312846062338790031898128063403419218957424163818359375E-17 0
c p weight -173 1 0
c p weight 174 1 0
c p weight -174 1 0
c p weight -171 1 0
c p weight 171 -1 0
c p weight 177 -0.7071067811865476837596133918850682675838470458984375 0
c p weight -177 1 0
c p weight 178 -0.707106781186547461715008466853760182857513427734375 0
c p weight -178 1 0
c p weight -175 1 0
c p weight 175 -1 0
c p weight 181 6.12323399573676603586882014729198302312846062338790031898128063403419218957424163818359375E-17 0
c p weight -181 1 0
c p weight 182 1 0
c p weight -182 1 0
c p weight -179 1 0
c p weight 179 -1 0
c p weight 185 -1 0
c p weight -185 1 0
c p weight 186 3.673940397442059375002259206809000622711899723162043418511757408850826323032379150390625E-16 0
c p weight -186 1 0
c p weight -183 1 0
c p weight 183 -1 0
c p weight -187 1 0
c p weight 187 -1 0
c p weight -190 1 0
c p weight 190 -1 0
c p weight -193 1 0
c p weight 193 -1 0
c p weight 196 0.5 0
c p weight -196 1 0
196 0
-7 0
-5 0
-3 0
-1 0
-9 1 0
-9 2 0
-9 -10 0
9 10 -1 -2 0
10 1 -2 0
-10 1 2 0
-11 1 0
10 -11 -2 0
-10 -11 2 0
10 11 -1 2 0
-10 11 -1 -2 0
-12 1 0
10 -12 2 0
-10 -12 -2 0
10 12 -1 -2 0
-10 12 -1 2 0
-13 14 0
-13 10 0
-13 -1 0
13 -14 1 -10 0
14 -1 10 0
-14 1 10 0
-15 10 0
14 -15 -1 0
-14 -15 1 0
14 15 1 -10 0
-14 15 -1 -10 0
-16 10 0
14 -16 1 0
-14 -16 -1 0
14 16 -1 -10 0
-14 16 1 -10 0
-17 14 0
-17 10 0
-17 -18 0
17 18 -14 -10 0
18 14 -10 0
-18 14 10 0
-19 14 0
18 -19 -10 0
-18 -19 10 0
18 19 -14 10 0
-18 19 -14 -10 0
-20 14 0
18 -20 10 0
-18 -20 -10 0
18 20 -14 -10 0
-18 20 -14 10 0
-21 22 0
-21 18 0
-21 -14 0
21 -22 14 -18 0
22 -14 18 0
-22 14 18 0
-23 18 0
22 -23 -14 0
-22 -23 14 0
22 23 14 -18 0
-22 23 -14 -18 0
-24 18 0
22 -24 14 0
-22 -24 -14 0
22 24 -14 -18 0
-22 24 14 -18 0
-25 22 0
-25 18 0
-25 -26 0
25 26 -22 -18 0
26 22 -18 0
-26 22 18 0
-27 22 0
26 -27 -18 0
-26 -27 18 0
26 27 -22 18 0
-26 27 -22 -18 0
-28 22 0
26 -28 18 0
-26 -28 -18 0
26 28 -22 -18 0
-26 28 -22 18 0
-29 22 0
-29 26 0
29 -22 -26 0
30 22 -26 0
30 -22 26 0
-30 22 26 0
-30 -22 -26 0
-31 32 0
-31 30 0
-31 -22 0
31 -32 22 -30 0
32 -22 30 0
-32 22 30 0
-33 30 0
32 -33 -22 0
-32 -33 22 0
32 33 22 -30 0
-32 33 -22 -30 0
-34 30 0
32 -34 22 0
-32 -34 -22 0
32 34 -22 -30 0
-32 34 22 -30 0
-35 32 0
-35 30 0
35 -32 -30 0
36 32 -30 0
36 -32 30 0
-36 32 30 0
-36 -32 -30 0
-37 3 0
-37 4 0
-37 -38 0
37 38 -3 -4 0
38 3 -4 0
-38 3 4 0
-39 3 0
38 -39 -4 0
-38 -39 4 0
38 39 -3 4 0
-38 39 -3 -4 0
-40 3 0
38 -40 4 0
-38 -40 -4 0
38 40 -3 -4 0
-38 40 -3 4 0
-41 42 0
-41 38 0
-41 -3 0
41 -42 3 -38 0
42 -3 38 0
-42 3 38 0
-43 38 0
42 -43 -3 0
-42 -43 3 0
42 43 3 -38 0
-42 43 -3 -38 0
-44 38 0
42 -44 3 0
-42 -44 -3 0
42 44 -3 -38 0
-42 44 3 -38 0
-45 42 0
-45 38 0
-45 -46 0
45 46 -42 -38 0
46 42 -38 0
-46 42 38 0
-47 42 0
46 -47 -38 0
-46 -47 38 0
46 47 -42 38 0
-46 47 -42 -38 0
-48 42 0
46 -48 38 0
-46 -48 -38 0
46 48 -42 -38 0
-46 48 -42 38 0
-49 50 0
-49 46 0
-49 -42 0
49 -50 42 -46 0
50 -42 46 0
-50 42 46 0
-51 46 0
50 -51 -42 0
-50 -51 42 0
50 51 42 -46 0
-50 51 -42 -46 0
-52 46 0
50 -52 42 0
-50 -52 -42 0
50 52 -42 -46 0
-50 52 42 -46 0
-53 50 0
-53 46 0
-53 -54 0
53 54 -50 -46 0
54 50 -46 0
-54 50 46 0
-55 50 0
54 -55 -46 0
-54 -55 46 0
54 55 -50 46 0
-54 55 -50 -46 0
-56 50 0
54 -56 46 0
-54 -56 -46 0
54 56 -50 -46 0
-54 56 -50 46 0
-57 50 0
-57 54 0
57 -50 -54 0
58 50 -54 0
58 -50 54 0
-58 50 54 0
-58 -50 -54 0
-59 60 0
-59 58 0
-59 -50 0
59 -60 50 -58 0
60 -50 58 0
-60 50 58 0
-61 58 0
60 -61 -50 0
-60 -61 50 0
60 61 50 -58 0
-60 61 -50 -58 0
-62 58 0
60 -62 50 0
-60 -62 -50 0
60 62 -50 -58 0
-60 62 50 -58 0
-63 60 0
-63 58 0
63 -60 -58 0
64 60 -58 0
64 -60 58 0
-64 60 58 0
-64 -60 -58 0
-65 5 0
-65 6 0
-65 -66 0
65 66 -5 -6 0
66 5 -6 0
-66 5 6 0
-67 5 0
66 -67 -6 0
-66 -67 6 0
66 67 -5 6 0
-66 67 -5 -6 0
-68 5 0
66 -68 6 0
-66 -68 -6 0
66 68 -5 -6 0
-66 68 -5 6 0
-69 70 0
-69 66 0
-69 -5 0
69 -70 5 -66 0
70 -5 66 0
-70 5 66 0
-71 66 0
70 -71 -5 0
-70 -71 5 0
70 71 5 -66 0
-70 71 -5 -66 0
-72 66 0
70 -72 5 0
-70 -72 -5 0
70 72 -5 -66 0
-70 72 5 -66 0
-73 70 0
-73 66 0
-73 -74 0
73 74 -70 -66 0
74 70 -66 0
-74 70 66 0
-75 70 0
74 -75 -66 0
-74 -75 66 0
74 75 -70 66 0
-74 75 -70 -66 0
-76 70 0
74 -76 66 0
-74 -76 -66 0
74 76 -70 -66 0
-74 76 -70 66 0
-77 78 0
-77 74 0
-77 -70 0
77 -78 70 -74 0
78 -70 74 0
-78 70 74 0
-79 74 0
78 -79 -70 0
-78 -79 70 0
78 79 70 -74 0
-78 79 -70 -74 0
-80 74 0
78 -80 70 0
-78 -80 -70 0
78 80 -70 -74 0
-78 80 70 -74 0
-81 78 0
-81 74 0
-81 -82 0
81 82 -78 -74 0
82 78 -74 0
-82 78 74 0
-83 78 0
82 -83 -74 0
-82 -83 74 0
82 83 -78 74 0
-82 83 -78 -74 0
-84 78 0
82 -84 74 0
-82 -84 -74 0
82 84 -78 -74 0
-82 84 -78 74 0
-85 78 0
-85 82 0
85 -78 -82 0
86 78 -82 0
86 -78 82 0
-86 78 82 0
-86 -78 -82 0
-87 88 0
-87 86 0
-87 -78 0
87 -88 78 -86 0
88 -78 86 0
-88 78 86 0
-89 86 0
88 -89 -78 0
-88 -89 78 0
88 89 78 -86 0
-88 89 -78 -86 0
-90 86 0
88 -90 78 0
-88 -90 -78 0
88 90 -78 -86 0
-88 90 78 -86 0
-91 88 0
-91 86 0
91 -88 -86 0
92 88 -86 0
92 -88 86 0
-92 88 86 0
-92 -88 -86 0
93 -8 0
-93 8 0
-94 7 0
-94 92 0
-94 88 -8 0
-94 -88 8 0
94 -7 88 8 -92 0
94 -7 -88 -8 -92 0
96 7 -88 0
96 -7 88 0
-96 7 88 0
-96 -7 -88 0
95 8 -92 0
95 -8 92 0
-95 8 92 0
-95 -8 -92 0
-97 96 0
-97 92 0
97 -96 -92 0
98 96 -92 0
98 -96 92 0
-98 96 92 0
-98 -96 -92 0
-99 100 0
-99 98 0
-99 -96 0
99 -100 96 -98 0
100 -96 98 0
-100 96 98 0
-101 98 0
100 -101 -96 0
-100 -101 96 0
100 101 96 -98 0
-100 101 -96 -98 0
-102 98 0
100 -102 96 0
-100 -102 -96 0
100 102 -96 -98 0
-100 102 96 -98 0
-103 100 0
-103 98 0
103 -100 -98 0
104 100 -98 0
104 -100 98 0
-104 100 98 0
-104 -100 -98 0
-105 100 0
-105 104 0
-105 -106 0
105 106 -100 -104 0
106 100 -104 0
-106 100 104 0
-107 100 0
106 -107 -104 0
-106 -107 104 0
106 107 -100 104 0
-106 107 -100 -104 0
-108 100 0
106 -108 104 0
-106 -108 -104 0
106 108 -100 -104 0
-106 108 -100 104 0
-109 110 0
-109 106 0
-109 -100 0
109 -110 100 -106 0
110 -100 106 0
-110 100 106 0
-111 106 0
110 -111 -100 0
-110 -111 100 0
110 111 100 -106 0
-110 111 -100 -106 0
-112 106 0
110 -112 100 0
-110 -112 -100 0
110 112 -100 -106 0
-110 112 100 -106 0
-113 110 0
-113 106 0
-113 -114 0
113 114 -110 -106 0
114 110 -106 0
-114 110 106 0
-115 110 0
114 -115 -106 0
-114 -115 106 0
114 115 -110 106 0
-114 115 -110 -106 0
-116 110 0
114 -116 106 0
-114 -116 -106 0
114 116 -110 -106 0
-114 116 -110 106 0
-117 118 0
-117 114 0
-117 -110 0
117 -118 110 -114 0
118 -110 114 0
-118 110 114 0
-119 114 0
118 -119 -110 0
-118 -119 110 0
118 119 110 -114 0
-118 119 -110 -114 0
-120 114 0
118 -120 110 0
-118 -120 -110 0
118 120 -110 -114 0
-118 120 110 -114 0
-121 118 0
-121 114 0
-121 -122 0
121 122 -118 -114 0
122 118 -114 0
-122 118 114 0
-123 118 0
122 -123 -114 0
-122 -123 114 0
122 123 -118 114 0
-122 123 -118 -114 0
-124 118 0
122 -124 114 0
-122 -124 -114 0
122 124 -118 -114 0
-122 124 -118 114 0
-125 118 0
-125 64 0
-125 60 -122 0
-125 -60 122 0
125 -118 60 122 -64 0
125 -118 -60 -122 -64 0
127 118 -60 0
127 -118 60 0
-127 118 60 0
-127 -118 -60 0
126 122 -64 0
126 -122 64 0
-126 122 64 0
-126 -122 -64 0
-128 127 0
-128 64 0
128 -127 -64 0
129 127 -64 0
129 -127 64 0
-129 127 64 0
-129 -127 -64 0
-130 131 0
-130 129 0
-130 -127 0
130 -131 127 -129 0
131 -127 129 0
-131 127 129 0
-132 129 0
131 -132 -127 0
-131 -132 127 0
131 132 127 -129 0
-131 132 -127 -129 0
-133 129 0
131 -133 127 0
-131 -133 -127 0
131 133 -127 -129 0
-131 133 127 -129 0
-134 131 0
-134 129 0
134 -131 -129 0
135 131 -129 0
135 -131 129 0
-135 131 129 0
-135 -131 -129 0
-136 131 0
-136 135 0
-136 -137 0
136 137 -131 -135 0
137 131 -135 0
-137 131 135 0
-138 131 0
137 -138 -135 0
-137 -138 135 0
137 138 -131 135 0
-137 138 -131 -135 0
-139 131 0
137 -139 135 0
-137 -139 -135 0
137 139 -131 -135 0
-137 139 -131 135 0
-140 141 0
-140 137 0
-140 -131 0
140 -141 131 -137 0
141 -131 137 0
-141 131 137 0
-142 137 0
141 -142 -131 0
-141 -142 131 0
141 142 131 -137 0
-141 142 -131 -137 0
-143 137 0
141 -143 131 0
-141 -143 -131 0
141 143 -131 -137 0
-141 143 131 -137 0
-144 141 0
-144 137 0
-144 -145 0
144 145 -141 -137 0
145 141 -137 0
-145 141 137 0
-146 141 0
145 -146 -137 0
-145 -146 137 0
145 146 -141 137 0
-145 146 -141 -137 0
-147 141 0
145 -147 137 0
-145 -147 -137 0
145 147 -141 -137 0
-145 147 -141 137 0
-148 149 0
-148 145 0
-148 -141 0
148 -149 141 -145 0
149 -141 145 0
-149 141 145 0
-150 145 0
149 -150 -141 0
-149 -150 141 0
149 150 141 -145 0
-149 150 -141 -145 0
-151 145 0
149 -151 141 0
-149 -151 -141 0
149 151 -141 -145 0
-149 151 141 -145 0
-152 149 0
-152 145 0
-152 -153 0
152 153 -149 -145 0
153 149 -145 0
-153 149 145 0
-154 149 0
153 -154 -145 0
-153 -154 145 0
153 154 -149 145 0
-153 154 -149 -145 0
-155 149 0
153 -155 145 0
-153 -155 -145 0
153 155 -149 -145 0
-153 155 -149 145 0
-156 149 0
-156 36 0
-156 32 -153 0
-156 -32 153 0
156 -149 32 153 -36 0
156 -149 -32 -153 -36 0
158 149 -32 0
158 -149 32 0
-158 149 32 0
-158 -149 -32 0
157 153 -36 0
157 -153 36 0
-157 153 36 0
-157 -153 -36 0
-159 158 0
-159 36 0
159 -158 -36 0
160 158 -36 0
160 -158 36 0
-160 158 36 0
-160 -158 -36 0
-161 162 0
-161 160 0
-161 -158 0
161 -162 158 -160 0
162 -158 160 0
-162 158 160 0
-163 160 0
162 -163 -158 0
-162 -163 158 0
162 163 158 -160 0
-162 163 -158 -160 0
-164 160 0
162 -164 158 0
-162 -164 -158 0
162 164 -158 -160 0
-162 164 158 -160 0
-165 162 0
-165 160 0
165 -162 -160 0
166 162 -160 0
166 -162 160 0
-166 162 160 0
-166 -162 -160 0
-167 162 0
-167 166 0
-167 -168 0
167 168 -162 -166 0
168 162 -166 0
-168 162 166 0
-169 162 0
168 -169 -166 0
-168 -169 166 0
168 169 -162 166 0
-168 169 -162 -166 0
-170 162 0
168 -170 166 0
-168 -170 -166 0
168 170 -162 -166 0
-168 170 -162 166 0
-171 172 0
-171 168 0
-171 -162 0
171 -172 162 -168 0
172 -162 168 0
-172 162 168 0
-173 168 0
172 -173 -162 0
-172 -173 162 0
172 173 162 -168 0
-172 173 -162 -168 0
-174 168 0
172 -174 162 0
-172 -174 -162 0
172 174 -162 -168 0
-172 174 162 -168 0
-175 172 0
-175 168 0
-175 -176 0
175 176 -172 -168 0
176 172 -168 0
-176 172 168 0
-177 172 0
176 -177 -168 0
-176 -177 168 0
176 177 -172 168 0
-176 177 -172 -168 0
-178 172 0
176 -178 168 0
-176 -178 -168 0
176 178 -172 -168 0
-176 178 -172 168 0
-179 180 0
-179 176 0
-179 -172 0
179 -180 172 -176 0
180 -172 176 0
-180 172 176 0
-181 176 0
180 -181 -172 0
-180 -181 172 0
180 181 172 -176 0
-180 181 -172 -176 0
-182 176 0
180 -182 172 0
-180 -182 -172 0
180 182 -172 -176 0
-180 182 172 -176 0
-183 180 0
-183 176 0
-183 -184 0
183 184 -180 -176 0
184 180 -176 0
-184 180 176 0
-185 180 0
184 -185 -176 0
-184 -185 176 0
184 185 -180 176 0
-184 185 -180 -176 0
-186 180 0
184 -186 176 0
-184 -186 -176 0
184 186 -180 -176 0
-184 186 -180 176 0
-187 118 0
-187 95 0
-187 7 -126 0
-187 -7 126 0
187 -118 7 126 -95 0
187 -118 -7 -126 -95 0
189 118 -7 0
189 -118 7 0
-189 118 7 0
-189 -118 -7 0
188 126 -95 0
188 -126 95 0
-188 126 95 0
-188 -126 -95 0
-190 149 0
-190 188 0
-190 118 -157 0
-190 -118 157 0
190 -149 118 157 -188 0
190 -149 -118 -157 -188 0
192 149 -118 0
192 -149 118 0
-192 149 118 0
-192 -149 -118 0
191 157 -188 0
191 -157 188 0
-191 157 188 0
-191 -157 -188 0
-193 180 0
-193 191 0
-193 149 -184 0
-193 -149 184 0
193 -180 149 184 -191 0
193 -180 -149 -184 -191 0
195 180 -149 0
195 -180 149 0
-195 180 149 0
-195 -180 -149 0
194 184 -191 0
194 -184 191 0
-194 184 191 0
-194 -184 -191 0
-180 0
-195 0
-191 0
-192 0
-188 0
-189 0
-95 0
